proyfinal/src/viki/013/andrea/andrea-localstore/experimentInOfficeAgust.take6/worker_6/41cbff53-8bc4-4cf6-aeef-423b67594eaa.als.cnf.out
Reading from standard input... Use '--help' for help.
============================[ Problem Statistics ]=============================
|                                                                             |
|  Number of variables:         87638                                         |
|  Number of clauses:          161767                                         |
|  Parse time:                   0.04 s                                       |
|                                                                             |
============================[ Search Statistics ]==============================
| Conflicts |          ORIGINAL         |          LEARNT          | Progress |
|           |    Vars  Clauses Literals |    Limit  Clauses Lit/Cl |          |
===============================================================================
|       100 |   63077   107743   269290 |    39505      100     10 | 28.026 % |
|       250 |   63077   107743   269290 |    43456      250     12 | 28.026 % |
|       475 |   63076   107699   269200 |    47801      473     33 | 28.027 % |
|       812 |   63076   107699   269200 |    52582      810     77 | 28.027 % |
|      1318 |   63076   107699   269200 |    57840     1316     61 | 28.027 % |
|      2077 |   51210    74185   186916 |    63624     2057     61 | 41.566 % |
|      3216 |   51161    73784   185894 |    69986     3193     58 | 41.622 % |
|      4924 |   50752    72000   181560 |    76985     4889     56 | 42.089 % |
|      7486 |   50713    71900   181337 |    84684     6828     54 | 42.134 % |
|     11330 |   50405    71442   180249 |    93152    10178     49 | 42.485 % |
|     17096 |   50205    69701   176159 |   102467    14312     49 | 42.713 % |
===============================================================================
restarts              : 63
conflicts             : 17712          (7531 /sec)
decisions             : 54612          (0.00 % random) (23222 /sec)
propagations          : 26472631       (11256418 /sec)
conflict literals     : 837067         (47.90 % deleted)
Memory used           : 35.80 MB
CPU time              : 2.35178 s

INDETERMINATE
